1329566229 0 0 0
1329567723 0 0 0
1329569114 0 0 0
1329569763 0 0 0
1329569878 0 0 0
1329570313 180 0 0
1329570488 185 0 0
1329573125 202 0 0
1329573773 213 0 0
1329574129 223 0 0
1329574661 239 0 0
1329575334 239 0 10
1329575513 249 0 10
1329575641 249 0 10
1329577158 249 0 10
1329657800 249 872 10
1329658594 249 872 10
1329669721 249 941 10
1329669817 249 941 10
1329670221 249 976 10
1329670321 249 976 10
